51
 1 612 12
 2 950 19
 3 49 1
 4 240 5
 5 940 20
 6 552 12
 7 270 6
 8 748 17
 9 258 6
 10 294 7
 11 738 18
 12 560 14
 13 39 1
 14 684 18
 15 481 13
 16 288 8
 17 175 5
 18 170 5
 19 627 19
 20 480 15
 21 620 20
 22 540 18
 23 406 14
 24 252 9
 25 189 7
 26 26 1
 27 200 8
 28 480 20
 29 368 16
 30 88 4
 31 336 16
 32 360 18
 33 76 4
 34 180 10
 35 289 17
 36 128 8
 37 120 8
 38 42 3
 39 208 16
 40 108 9
 41 132 12
 42 50 5
 43 45 5
 44 112 14
 45 112 16
 46 96 16
 47 40 8
 48 52 13
 49 36 12
 50 18 9
 51 7 7
1020